eval/id=824_n=25_m=106.cnf
p cnf 25 106
-5 -13 14 0
1 4 12 0
2 7 11 0
-7 16 20 0
4 -12 -21 0
-11 12 24 0
10 -15 -22 0
-1 -17 -24 0
6 -18 25 0
-2 5 23 0
-5 19 -21 0
-10 -17 23 0
-5 -9 21 0
-2 -5 -24 0
1 -7 -16 0
-3 -12 15 0
3 9 10 0
-9 14 -21 0
-2 -14 22 0
3 -13 21 0
-1 -5 11 0
4 -16 -25 0
-4 -16 -20 0
-4 6 13 0
-5 -9 -12 0
13 -16 17 0
5 10 -20 0
7 -20 24 0
7 8 -25 0
7 15 -16 0
9 -10 -15 0
3 12 -22 0
-4 -21 -24 0
18 22 24 0
-6 -17 -22 0
-6 -20 21 0
12 19 20 0
7 -10 12 0
-3 13 19 0
2 -11 19 0
-9 -17 -19 0
3 -6 18 0
15 -20 23 0
3 22 -24 0
-1 -2 20 0
18 -24 25 0
-18 23 -24 0
9 15 -16 0
-9 -20 23 0
8 -11 -22 0
8 9 19 0
22 -23 24 0
4 -19 20 0
1 -5 -16 0
-4 6 -7 0
7 12 -24 0
-3 -12 13 0
9 -12 -23 0
7 -17 -23 0
21 -22 -23 0
-3 11 -24 0
6 -9 -22 0
11 24 -25 0
-7 -19 -20 0
-3 11 25 0
12 19 -20 0
2 -8 -16 0
-3 -9 23 0
8 12 13 0
-16 -18 -20 0
-10 -16 20 0
4 -13 -16 0
3 10 19 0
9 -11 -20 0
-1 9 -17 0
-12 14 22 0
11 -18 24 0
2 -9 18 0
8 -10 18 0
7 19 22 0
-14 -19 -22 0
-5 -13 16 0
-3 -20 22 0
1 -23 25 0
-2 -9 -14 0
11 -14 -16 0
6 -10 -25 0
-8 -14 -22 0
7 21 -25 0
8 18 25 0
12 -19 24 0
-9 11 -21 0
-8 -12 -25 0
-4 -9 -22 0
8 -10 -14 0
1 -13 15 0
7 -8 15 0
-2 -15 24 0
-4 -5 -25 0
10 -18 -21 0
-6 -14 -17 0
-20 22 -23 0
13 -16 25 0
7 -18 21 0
-2 -6 -16 0
-8 9 -19 0
