eval/id=824_n=25_m=106.wcnf
p wcnf 25 106 1000
1000 -5 -13 14 0
1000 1 4 12 0
1000 2 7 11 0
1000 -7 16 20 0
41 4 -12 -21 0
95 -11 12 24 0
1000 10 -15 -22 0
1000 -1 -17 -24 0
5 6 -18 25 0
1000 -2 5 23 0
17 -5 19 -21 0
1000 -10 -17 23 0
57 -5 -9 21 0
1000 -2 -5 -24 0
1000 1 -7 -16 0
33 -3 -12 15 0
1000 3 9 10 0
1000 -9 14 -21 0
52 -2 -14 22 0
1000 3 -13 21 0
1000 -1 -5 11 0
1000 4 -16 -25 0
1000 -4 -16 -20 0
1000 -4 6 13 0
1000 -5 -9 -12 0
1000 13 -16 17 0
1000 5 10 -20 0
1000 7 -20 24 0
1000 7 8 -25 0
1000 7 15 -16 0
1000 9 -10 -15 0
1000 3 12 -22 0
1000 -4 -21 -24 0
1000 18 22 24 0
1000 -6 -17 -22 0
6 -6 -20 21 0
1000 12 19 20 0
1000 7 -10 12 0
1000 -3 13 19 0
1000 2 -11 19 0
74 -9 -17 -19 0
98 3 -6 18 0
1000 15 -20 23 0
1000 3 22 -24 0
1000 -1 -2 20 0
1000 18 -24 25 0
1000 -18 23 -24 0
1000 9 15 -16 0
18 -9 -20 23 0
1000 8 -11 -22 0
1000 8 9 19 0
1000 22 -23 24 0
1000 4 -19 20 0
1000 1 -5 -16 0
1000 -4 6 -7 0
1000 7 12 -24 0
1000 -3 -12 13 0
1000 9 -12 -23 0
1000 7 -17 -23 0
1000 21 -22 -23 0
1000 -3 11 -24 0
1000 6 -9 -22 0
1000 11 24 -25 0
1000 -7 -19 -20 0
1000 -3 11 25 0
1000 12 19 -20 0
1000 2 -8 -16 0
1000 -3 -9 23 0
97 8 12 13 0
1000 -16 -18 -20 0
1000 -10 -16 20 0
1000 4 -13 -16 0
1000 3 10 19 0
1000 9 -11 -20 0
1000 -1 9 -17 0
1000 -12 14 22 0
99 11 -18 24 0
1000 2 -9 18 0
31 8 -10 18 0
1000 7 19 22 0
1000 -14 -19 -22 0
1000 -5 -13 16 0
1000 -3 -20 22 0
1000 1 -23 25 0
1000 -2 -9 -14 0
1000 11 -14 -16 0
1000 6 -10 -25 0
1000 -8 -14 -22 0
1000 7 21 -25 0
1000 8 18 25 0
1000 12 -19 24 0
1000 -9 11 -21 0
23 -8 -12 -25 0
1000 -4 -9 -22 0
1000 8 -10 -14 0
1000 1 -13 15 0
1000 7 -8 15 0
1000 -2 -15 24 0
1000 -4 -5 -25 0
1000 10 -18 -21 0
1000 -6 -14 -17 0
1000 -20 22 -23 0
1000 13 -16 25 0
1000 7 -18 21 0
1000 -2 -6 -16 0
1000 -8 9 -19 0
